p cnf 797 2170
c max 6 7 8 9 10 11 12 13 14 15 16 17 18 19 20 21 22 23 24 25 26 27 28 29 30 31 32 33 34 35 36 37 38 39 40 41 42 43 44 45 46 47 48 49 50 51 52 53 54 55 56 57 58 59 60 61 62 63 64 65 66 67 68 69 141 142 143 144 145 146 147 148 149 150 151 152 153 154 155 156 157 158 159 160 161 162 163 164 165 166 167 168 169 170 171 172 205 206 207 208 209 210 211 212 213 214 215 216 217 218 219 220 221 222 223 224 225 226 227 228 229 230 231 232 233 234 235 236 340 341 342 343 344 345 346 347 348 349 350 351 352 353 354 355 356 357 358 359 360 361 362 363 364 365 366 367 368 369 370 371 475 476 477 478 479 480 481 482 483 484 485 486 487 488 489 490 491 492 493 494 495 496 497 498 499 500 501 502 503 504 505 506 610 611 612 613 614 615 616 617 618 619 620 621 622 623 624 625 626 627 628 629 630 631 632 633 634 635 636 637 638 639 640 641 642 643 644 645 646 647 648 649 650 651 652 653 654 655 656 657 658 659 660 661 662 663 664 665 666 667 668 669 670 671 672 673 674 675 676 677 678 679 680 681 682 683 684 685 686 687 688 689 690 691 692 693 694 695 696 697 698 699 700 701 702 703 704 705 706 707 708 709 710 711 712 713 714 715 716 717 718 719 720 721 722 723 724 725 726 727 728 729 730 731 732 733 734 735 736 737 738 739 740 741 746 747 748 749 754 755 756 757 762 763 764 765 770 771 772 773 775 776 777 778 780 781 782 783 785 786 787 788 792 793 797 0
c ind 1 2 3 4 5 70 71 72 73 74 75 76 77 78 79 80 81 82 83 84 85 86 87 88 89 90 91 92 93 94 95 96 97 98 99 100 101 102 103 104 105 106 107 108 109 110 111 112 113 114 115 116 117 118 119 120 121 122 123 124 125 126 127 128 129 130 131 132 133 134 135 136 137 138 139 173 174 175 176 177 178 179 180 181 182 183 184 185 186 187 188 189 190 191 192 193 194 195 196 197 198 199 200 201 202 203 204 237 238 239 240 241 242 243 244 245 246 247 248 249 250 251 252 253 254 255 256 257 258 259 260 261 262 263 264 265 266 267 268 269 270 271 272 273 274 275 276 277 278 279 280 281 282 283 284 285 286 287 288 289 290 291 292 293 294 295 296 297 298 299 300 301 302 303 304 305 306 308 309 310 311 312 313 314 315 316 317 318 319 320 321 322 323 324 325 326 327 328 329 330 331 332 333 334 335 336 337 338 339 372 373 374 375 376 377 378 379 380 381 382 383 384 385 386 387 388 389 390 391 392 393 394 395 396 397 398 399 400 401 402 403 404 405 406 407 408 409 410 411 412 413 414 415 416 417 418 419 420 421 422 423 424 425 426 427 428 429 430 431 432 433 434 435 436 437 438 439 440 441 443 444 445 446 447 448 449 450 451 452 453 454 455 456 457 458 459 460 461 462 463 464 465 466 467 468 469 470 471 472 473 474 507 508 509 510 511 512 513 514 515 516 517 518 519 520 521 522 523 524 525 526 527 528 529 530 531 532 533 534 535 536 537 538 539 540 541 542 543 544 545 546 547 548 549 550 551 552 553 554 555 556 557 558 559 560 561 562 563 564 565 566 567 568 569 570 571 572 573 574 575 576 578 579 580 581 582 583 584 585 586 587 588 589 590 591 592 593 594 595 596 597 598 599 600 601 602 603 604 605 606 607 608 609 742 743 744 745 750 751 752 753 758 759 760 761 766 767 768 769 774 779 784 789 790 791 796 0
5 0
139 0
-140 0
306 0
-307 0
441 0
-442 0
576 0
-577 0
-794 0
-795 0
796 0
-136 -104 0
-136 -105 0
-136 -106 0
-136 -107 0
-136 -108 0
-136 -109 0
-136 -110 0
-136 -111 0
-136 -112 0
-136 -113 0
-136 -114 0
-136 -115 0
-136 -116 0
-136 -117 0
-136 -118 0
-136 -119 0
-136 -120 0
-136 -121 0
-136 -122 0
-136 -123 0
-136 -124 0
-136 -125 0
-136 -126 0
-136 -127 0
-136 -128 0
-136 -129 0
-136 -130 0
-136 -131 0
-136 -132 0
-136 -133 0
-136 -134 0
-136 -135 0
-303 -271 0
-303 -272 0
-303 -273 0
-303 -274 0
-303 -275 0
-303 -276 0
-303 -277 0
-303 -278 0
-303 -279 0
-303 -280 0
-303 -281 0
-303 -282 0
-303 -283 0
-303 -284 0
-303 -285 0
-303 -286 0
-303 -287 0
-303 -288 0
-303 -289 0
-303 -290 0
-303 -291 0
-303 -292 0
-303 -293 0
-303 -294 0
-303 -295 0
-303 -296 0
-303 -297 0
-303 -298 0
-303 -299 0
-303 -300 0
-303 -301 0
-303 -302 0
-438 -406 0
-438 -407 0
-438 -408 0
-438 -409 0
-438 -410 0
-438 -411 0
-438 -412 0
-438 -413 0
-438 -414 0
-438 -415 0
-438 -416 0
-438 -417 0
-438 -418 0
-438 -419 0
-438 -420 0
-438 -421 0
-438 -422 0
-438 -423 0
-438 -424 0
-438 -425 0
-438 -426 0
-438 -427 0
-438 -428 0
-438 -429 0
-438 -430 0
-438 -431 0
-438 -432 0
-438 -433 0
-438 -434 0
-438 -435 0
-438 -436 0
-438 -437 0
-573 -541 0
-573 -542 0
-573 -543 0
-573 -544 0
-573 -545 0
-573 -546 0
-573 -547 0
-573 -548 0
-573 -549 0
-573 -550 0
-573 -551 0
-573 -552 0
-573 -553 0
-573 -554 0
-573 -555 0
-573 -556 0
-573 -557 0
-573 -558 0
-573 -559 0
-573 -560 0
-573 -561 0
-573 -562 0
-573 -563 0
-573 -564 0
-573 -565 0
-573 -566 0
-573 -567 0
-573 -568 0
-573 -569 0
-573 -570 0
-573 -571 0
-573 -572 0
-21 490 -522 0
-13 513 -514 0
-19 51 -83 0
-22 356 -388 0
25 -224 256 0
-34 368 434 0
-9 208 274 0
-14 348 414 0
16 -516 517 0
29 -498 564 0
-36 68 134 0
-208 -239 240 0
-24 56 122 0
-222 -253 254 0
-10 209 275 0
229 260 -261 0
23 -388 389 0
-37 506 572 0
-34 -368 -434 0
-352 -383 384 0
-26 225 291 0
25 224 -290 0
34 66 -132 0
-26 391 -392 0
11 -210 276 0
21 -220 252 0
353 384 -385 0
15 -380 381 0
12 211 -277 0
28 497 -563 0
19 -218 284 0
8 -238 239 0
18 -50 116 0
-37 506 785 786 787 788 0
-20 354 420 0
32 -262 263 0
-52 -83 84 0
-19 353 419 0
-494 -525 526 0
21 220 -286 0
11 -74 75 0
30 -62 94 0
-11 345 411 0
-13 -45 -111 0
-14 379 -380 0
-29 -228 -294 0
17 -382 383 0
-28 362 428 0
10 42 -108 0
-32 231 -263 0
-57 -88 89 0
-12 481 547 0
11 -345 377 0
-10 510 -511 0
32 -501 567 0
-30 -499 -565 0
-30 -364 -430 0
-7 341 -373 0
18 -50 82 0
9 -343 409 0
17 -486 552 0
-213 -244 245 0
-37 371 780 781 782 783 0
-20 219 285 0
-33 232 298 0
30 -93 94 0
-28 -227 -293 0
35 -67 133 0
345 376 -377 0
-24 56 -88 0
36 235 -301 0
15 -214 246 0
-49 -80 81 0
7 -205 238 0
30 -260 261 0
-344 -375 376 0
33 -232 264 0
-226 -257 258 0
-30 229 295 0
33 65 -131 0
-356 -387 388 0
55 86 -87 0
37 -506 572 0
25 494 -560 0
34 -368 400 0
36 37 -68 135 770 771 772 773 0
19 -249 250 0
14 213 -279 0
30 62 -128 0
-354 -385 386 0
17 -80 81 0
-44 -75 76 0
-21 521 -522 0
219 250 -251 0
-484 -515 516 0
222 253 -254 0
16 48 -114 0
28 -60 126 0
346 377 -378 0
-11 43 109 0
-10 -344 -410 0
-34 503 569 0
494 525 -526 0
-209 -240 241 0
53 84 -85 0
11 43 -109 0
-16 48 114 0
18 -217 283 0
354 385 -386 0
27 -392 393 0
-37 -69 -135 0
13 -45 111 0
217 248 -249 0
17 351 -417 0
13 -45 77 0
24 -87 88 0
-17 351 417 0
-6 205 271 0
-32 231 297 0
27 -496 528 0
-15 484 550 0
21 -386 387 0
8 -40 106 0
-13 347 -379 0
220 251 -252 0
271 272 273 274 275 276 277 278 279 280 281 282 283 284 285 286 287 288 289 290 291 292 293 294 295 296 297 298 299 300 301 302 303 0
-475 -476 508 0
34 -503 535 0
-26 -360 -426 0
-37 -506 -572 0
10 -240 241 0
34 -97 98 0
6 38 -104 0
16 -350 382 0
-24 358 -390 0
-22 491 -523 0
7 -341 407 0
-19 488 -520 0
64 95 -96 0
-21 490 556 0
221 252 -253 0
29 -394 395 0
21 -53 119 0
31 -365 431 0
16 -485 517 0
-23 -222 -288 0
482 513 -514 0
9 -239 240 0
-55 -86 87 0
-218 -249 250 0
-495 -526 527 0
347 378 -379 0
6 -476 508 0
342 373 -374 0
230 261 -262 0
-17 486 552 0
-27 90 -91 0
29 -259 260 0
22 -221 253 0
-25 494 560 0
362 393 -394 0
42 73 -74 0
-24 493 559 0
32 501 -567 0
-34 -66 -132 0
29 363 -429 0
-34 66 132 0
34 -264 265 0
35 -504 536 0
-9 -478 -544 0
-15 214 -246 0
-10 375 -376 0
-20 219 -251 0
-15 47 113 0
-25 -224 -290 0
12 -481 547 0
-17 49 115 0
36 -505 -506 572 785 786 787 788 0
10 -42 108 0
28 -60 92 0
20 -354 386 0
-17 -49 -115 0
27 -90 91 0
-27 -496 -562 0
-35 400 -401 0
32 -501 533 0
-18 -50 -116 0
-225 -256 257 0
-17 517 -518 0
-7 476 542 0
-13 -212 -278 0
18 -352 418 0
21 490 -556 0
20 -520 521 0
30 -229 295 0
104 105 106 107 108 109 110 111 112 113 114 115 116 117 118 119 120 121 122 123 124 125 126 127 128 129 130 131 132 133 134 135 136 0
-502 -533 534 0
24 -493 559 0
6 -38 104 0
20 -489 555 0
504 535 -536 0
23 -222 254 0
29 -61 127 0
-23 -492 -558 0
-12 -211 -277 0
-353 -384 385 0
-29 498 564 0
-8 207 273 0
-210 -241 242 0
15 -47 113 0
19 -82 83 0
-32 397 -398 0
-17 -351 -417 0
-25 494 -526 0
-14 483 -515 0
-22 54 -86 0
-11 -480 -546 0
7 -39 105 0
10 -73 74 0
21 -53 85 0
32 -366 432 0
-15 -214 -280 0
31 500 -566 0
358 389 -390 0
-19 82 -83 0
-27 361 427 0
-36 235 301 0
19 -384 385 0
-14 483 549 0
9 -374 375 0
13 -212 278 0
27 -527 528 0
7 -476 508 0
211 242 -243 0
16 -215 281 0
47 78 -79 0
-16 79 -80 0
-230 -261 262 0
-224 -255 256 0
-34 -503 -569 0
-12 481 -513 0
10 209 -275 0
-229 -260 261 0
-11 -43 -109 0
-28 91 -92 0
-50 -81 82 0
-9 41 -73 0
36 -68 -69 135 770 771 772 773 0
-9 -208 -274 0
25 359 -425 0
498 529 -530 0
-25 224 -256 0
-24 87 -88 0
19 -218 250 0
20 -52 84 0
-14 -348 -414 0
36 505 -571 0
34 -368 434 0
-30 364 -396 0
-12 377 -378 0
-68 -69 -99 135 136 770 771 772 773 0
20 -250 251 0
-19 249 -250 0
34 -66 132 0
9 -509 510 0
-12 242 -243 0
22 -54 120 0
15 -349 415 0
-28 60 126 0
-8 477 543 0
-33 263 -264 0
16 215 -281 0
-22 85 -86 0
-24 389 -390 0
491 522 -523 0
19 51 -117 0
-29 529 -530 0
36 -370 371 780 781 782 783 0
44 75 -76 0
-10 -42 -108 0
31 -531 532 0
368 399 -400 0
-216 -247 248 0
502 533 -534 0
348 379 -380 0
-30 -229 -295 0
-12 512 -513 0
-19 218 284 0
24 -223 255 0
-25 -359 -425 0
17 -517 518 0
-9 343 -375 0
-35 67 133 0
8 -373 374 0
-11 241 -242 0
27 -226 292 0
6 475 -541 0
352 383 -384 0
33 -367 433 0
-12 -346 -412 0
-18 50 116 0
493 524 -525 0
-11 74 -75 0
28 -497 529 0
36 37 -266 302 303 775 776 777 778 0
-31 500 566 0
-28 -362 -428 0
-17 49 -81 0
-20 83 -84 0
-32 262 -263 0
207 238 -239 0
231 262 -263 0
7 341 -407 0
36 -236 -266 302 303 775 776 777 778 0
234 265 -266 0
-32 366 432 0
24 -493 525 0
57 88 -89 0
15 -78 79 0
11 -480 512 0
37 236 -302 0
29 -92 93 0
-13 212 278 0
8 -477 543 0
-13 76 -77 0
32 -64 96 0
32 -231 263 0
23 -253 254 0
-10 479 -511 0
6 -205 271 0
23 -357 389 0
33 -263 264 0
8 -477 509 0
-29 394 -395 0
-12 346 -378 0
37 -505 -536 572 573 785 786 787 788 0
-17 216 -248 0
34 -399 400 0
-8 -342 -408 0
40 71 -72 0
-21 53 119 0
-37 236 775 776 777 778 0
-234 -265 266 0
30 -229 261 0
36 -68 134 0
19 353 -419 0
14 348 -414 0
22 491 -557 0
-362 -393 394 0
23 -222 288 0
-35 234 -266 0
18 -217 249 0
233 264 -265 0
-25 57 -89 0
-14 514 -515 0
-6 475 541 0
-51 -82 83 0
-25 -57 -123 0
-18 50 -82 0
24 -389 390 0
-505 -506 -536 572 573 785 786 787 788 0
-34 503 -535 0
24 -56 122 0
6 7 508 0
-19 353 -385 0
483 514 -515 0
26 495 -561 0
-28 497 -529 0
-22 -221 -287 0
20 -52 118 0
20 354 -420 0
-28 393 -394 0
14 483 -549 0
36 370 -436 0
-9 239 -240 0
30 -364 430 0
30 -499 565 0
15 -515 516 0
35 -400 401 0
-20 52 -84 0
30 -530 531 0
10 344 -410 0
23 -86 87 0
60 91 -92 0
-12 211 -243 0
-6 -205 -271 0
26 -495 527 0
-347 -378 379 0
13 482 -548 0
-61 -92 93 0
27 -257 258 0
-28 258 -259 0
-496 -527 528 0
16 -485 551 0
-35 234 300 0
28 -91 92 0
15 349 -415 0
17 216 -282 0
-16 516 -517 0
24 223 -289 0
16 -48 80 0
-477 -508 509 0
20 -219 285 0
23 -357 423 0
-17 382 -383 0
-30 -62 -128 0
-19 -218 -284 0
-18 383 -384 0
8 -207 239 0
31 -365 397 0
13 -347 379 0
-12 44 110 0
503 534 -535 0
-6 -7 205 -238 0
10 -510 511 0
-22 221 287 0
210 241 -242 0
-357 -388 389 0
33 -65 131 0
34 503 -569 0
-26 495 -527 0
-22 -54 -120 0
-478 -509 510 0
-21 -220 -286 0
-37 236 302 0
34 233 -299 0
-6 205 206 -238 0
-16 215 281 0
-7 206 272 0
-23 222 -254 0
48 79 -80 0
24 -254 255 0
208 239 -240 0
-10 -209 -275 0
-29 -363 -429 0
26 -58 124 0
14 -483 515 0
12 -512 513 0
-9 478 -510 0
-27 361 -393 0
23 357 -423 0
-6 340 341 -373 0
-34 66 -98 0
6 -341 373 0
24 -223 289 0
-6 475 476 -508 0
486 517 -518 0
-30 229 -261 0
-9 41 107 0
366 397 -398 0
-370 371 -401 438 780 781 782 783 0
10 -375 376 0
-9 -343 -409 0
-482 -513 514 0
-33 -502 -568 0
-348 -379 380 0
359 390 -391 0
-21 355 421 0
13 212 -278 0
17 -216 248 0
26 -360 392 0
-20 520 -521 0
-359 -390 391 0
62 93 -94 0
-481 -512 513 0
20 489 -555 0
22 -491 557 0
29 -228 294 0
19 -51 83 0
10 -209 241 0
15 -484 516 0
6 7 71 0
22 -54 86 0
-20 52 118 0
-8 342 408 0
18 217 -283 0
35 -265 266 0
-11 376 -377 0
-34 264 -265 0
369 400 -401 0
-19 519 -520 0
-6 -340 -406 0
9 -208 274 0
-22 54 120 0
-363 -394 395 0
-35 -67 -133 0
13 -212 244 0
-21 251 -252 0
20 -83 84 0
-18 487 553 0
-34 233 -265 0
-227 -258 259 0
17 49 -115 0
12 -44 110 0
-30 395 -396 0
367 398 -399 0
20 -354 420 0
-17 216 282 0
46 77 -78 0
-21 -53 -119 0
-350 -381 382 0
343 374 -375 0
11 -480 546 0
-10 479 545 0
34 368 -434 0
-487 -518 519 0
-28 60 -92 0
-22 491 557 0
8 -342 408 0
-28 362 -394 0
22 -387 388 0
24 -56 88 0
11 -345 411 0
22 -85 86 0
14 46 -112 0
31 -94 95 0
14 -213 245 0
8 -207 273 0
7 -206 272 0
496 527 -528 0
-21 -490 -556 0
9 -72 73 0
-36 -235 -301 0
14 -483 549 0
36 -505 571 0
-42 -73 74 0
-11 511 -512 0
-9 343 409 0
12 -44 76 0
22 54 -120 0
-15 214 280 0
7 39 -105 0
19 -353 385 0
29 -228 260 0
11 -43 109 0
-31 -230 -296 0
-37 -370 -401 438 780 781 782 783 0
7 -38 71 0
11 210 -276 0
21 -355 421 0
9 208 -274 0
-19 -488 -554 0
14 -213 279 0
209 240 -241 0
36 -370 436 0
31 -396 397 0
-6 -7 475 -508 0
-211 -242 243 0
-24 493 -525 0
-9 374 -375 0
-32 501 567 0
-26 58 124 0
-26 225 -257 0
-23 492 558 0
-28 -497 -563 0
-20 385 -386 0
30 -499 531 0
-13 -347 -413 0
33 -232 298 0
22 -252 253 0
-33 -367 -433 0
51 82 -83 0
-32 64 130 0
-16 -485 -551 0
-31 -500 -566 0
-6 38 104 0
22 -522 523 0
32 -95 96 0
23 -55 121 0
-23 55 121 0
-35 369 435 0
16 -48 114 0
-27 226 292 0
65 96 -97 0
-355 -386 387 0
-499 -530 531 0
28 -227 259 0
35 -234 300 0
-37 69 770 771 772 773 0
-18 217 283 0
26 58 -124 0
-20 354 -386 0
-12 44 -76 0
-365 -396 397 0
-33 367 433 0
-7 206 -238 0
21 -84 85 0
36 -235 -236 302 775 776 777 778 0
-29 228 -260 0
-36 -505 -571 0
17 -49 81 0
-36 370 436 0
26 225 -291 0
-32 -64 -130 0
-21 53 -85 0
-22 252 -253 0
22 -356 422 0
58 89 -90 0
-32 64 -96 0
14 -46 112 0
-14 213 -245 0
25 -494 526 0
-33 502 568 0
-9 208 -240 0
-500 -531 532 0
-24 -56 -122 0
20 -385 386 0
29 61 -127 0
-498 -529 530 0
12 -75 76 0
13 347 -413 0
-366 -397 398 0
-18 352 -384 0
355 386 -387 0
7 -341 373 0
26 -495 561 0
19 -51 117 0
-491 -522 523 0
-29 498 -530 0
19 -519 520 0
-485 -516 517 0
25 -525 526 0
25 -57 89 0
-8 40 -72 0
-27 -361 -427 0
33 -533 534 0
35 -504 570 0
15 -484 550 0
-32 -231 -297 0
-9 -41 -107 0
-26 360 426 0
-24 -223 -289 0
26 360 -426 0
13 -243 244 0
-30 499 565 0
-58 -89 90 0
12 -211 277 0
-23 357 -389 0
-232 -263 264 0
-14 -213 -279 0
17 -49 115 0
-7 -476 -542 0
-13 482 548 0
-65 -96 97 0
35 67 -133 0
10 479 -545 0
-29 61 127 0
32 -532 533 0
29 -363 429 0
-31 230 -262 0
-37 69 135 0
6 -340 406 0
15 214 -280 0
-29 -498 -564 0
-15 245 -246 0
21 -490 556 0
19 218 -284 0
-27 59 125 0
13 -76 77 0
357 388 -389 0
21 -251 252 0
26 -89 90 0
10 -479 511 0
-30 499 -531 0
-26 -225 -291 0
31 -63 95 0
-490 -521 522 0
10 -344 376 0
-21 355 -387 0
-24 358 424 0
24 -358 424 0
224 255 -256 0
21 355 -421 0
351 382 -383 0
-360 -391 392 0
-8 71 -72 0
28 227 -293 0
-54 -85 86 0
-31 365 431 0
479 510 -511 0
-23 253 -254 0
-34 399 -400 0
-11 210 276 0
23 -492 558 0
16 -381 382 0
363 394 -395 0
41 72 -73 0
17 -351 383 0
-10 344 410 0
35 -369 435 0
-489 -520 521 0
-11 -210 -276 0
31 63 -129 0
-27 -59 -125 0
34 -233 299 0
-13 212 -244 0
-23 492 -524 0
478 509 -510 0
26 -225 257 0
15 484 -550 0
-217 -248 249 0
-16 246 -247 0
-35 535 -536 0
-30 364 430 0
-37 371 437 0
-18 -217 -283 0
-8 207 -239 0
212 243 -244 0
50 81 -82 0
-6 -7 38 -71 0
-38 -39 71 0
-36 -370 -436 0
213 244 -245 0
16 -246 247 0
-361 -392 393 0
228 259 -260 0
-368 -399 400 0
24 56 -122 0
-6 38 39 -71 0
495 526 -527 0
-33 533 -534 0
9 -208 240 0
63 94 -95 0
32 -366 398 0
7 -476 542 0
-34 534 -535 0
14 -46 78 0
-492 -523 524 0
-351 -382 383 0
-349 -380 381 0
-17 80 -81 0
-17 247 -248 0
29 228 -294 0
-15 -47 -113 0
16 485 -551 0
-20 489 555 0
-33 398 -399 0
-43 -74 75 0
28 60 -126 0
11 -376 377 0
-16 215 -247 0
-31 -63 -129 0
11 -210 242 0
-31 396 -397 0
-497 -528 529 0
-34 -233 -299 0
-28 -60 -126 0
56 87 -88 0
14 -348 414 0
35 234 -300 0
-31 94 -95 0
-33 367 -399 0
227 258 -259 0
360 391 -392 0
31 -230 262 0
7 476 -542 0
-11 43 -75 0
-20 -219 -285 0
-215 -246 247 0
-21 386 -387 0
-14 77 -78 0
-25 -494 -560 0
54 85 -86 0
43 74 -75 0
10 -209 275 0
-15 380 -381 0
15 -349 381 0
-23 357 423 0
-7 476 -508 0
-22 -356 -422 0
28 -362 394 0
24 493 -559 0
487 518 -519 0
-214 -245 246 0
-30 530 -531 0
6 340 -406 0
356 387 -388 0
-22 -491 -557 0
27 -59 125 0
15 -47 79 0
216 247 -248 0
27 496 -562 0
-31 531 -532 0
25 -494 560 0
35 504 -570 0
-24 -358 -424 0
10 -42 74 0
-15 47 -79 0
-16 -48 -114 0
-6 -38 -104 0
350 381 -382 0
-14 46 -78 0
-25 57 123 0
-60 -91 92 0
12 -346 378 0
28 -497 563 0
-503 -534 535 0
28 -362 428 0
36 371 -401 438 780 781 782 783 0
-488 -519 520 0
12 481 -547 0
-32 -501 -567 0
-35 504 -536 0
23 -492 524 0
8 477 -543 0
-47 -78 79 0
-486 -517 518 0
-35 -504 -570 0
26 -360 426 0
-14 213 279 0
31 -500 566 0
-8 -477 -543 0
25 -88 89 0
-53 -84 85 0
485 516 -517 0
66 97 -98 0
-31 -365 -431 0
-27 392 -393 0
12 346 -412 0
-6 -475 -541 0
9 -41 107 0
-6 340 406 0
-31 230 296 0
23 -55 87 0
-18 352 418 0
13 45 -111 0
-25 255 -256 0
32 -231 297 0
-30 93 -94 0
-8 -40 -106 0
-7 -39 -105 0
-10 -479 -545 0
-7 -341 -407 0
21 -355 387 0
-33 96 -97 0
-56 -87 88 0
-15 -349 -415 0
25 -255 256 0
-12 -44 -110 0
8 40 -106 0
17 486 -552 0
-31 500 -532 0
-25 224 290 0
35 -369 401 0
-12 75 -76 0
-32 366 -398 0
488 519 -520 0
-29 -61 -127 0
-231 -262 263 0
18 -487 519 0
-36 -68 -134 0
-64 -95 96 0
-212 -243 244 0
36 -506 -536 572 573 785 786 787 788 0
-19 51 117 0
25 -224 290 0
-7 39 105 0
36 37 -505 572 785 786 787 788 0
-40 -71 72 0
406 407 408 409 410 411 412 413 414 415 416 417 418 419 420 421 422 423 424 425 426 427 428 429 430 431 432 433 434 435 436 437 438 0
25 -390 391 0
-11 -345 -411 0
37 -371 437 0
-17 351 -383 0
15 -214 280 0
-16 350 -382 0
-26 495 561 0
-35 504 570 0
-223 -254 255 0
-27 257 -258 0
18 -518 519 0
19 488 -554 0
8 -71 72 0
-20 489 -521 0
-15 -484 -550 0
-10 240 -241 0
11 -241 242 0
28 -528 529 0
33 367 -433 0
-14 244 -245 0
27 226 -292 0
-8 508 -509 0
9 -343 375 0
-25 88 -89 0
-26 58 -90 0
-504 -535 536 0
26 -256 257 0
45 76 -77 0
12 -346 412 0
11 345 -411 0
37 371 -437 0
365 396 -397 0
9 -478 510 0
-25 359 -391 0
-28 497 563 0
33 502 -568 0
26 -58 90 0
32 231 -297 0
361 392 -393 0
36 -37 -401 438 780 781 782 783 0
-358 -389 390 0
-8 238 -239 0
30 -364 396 0
27 -361 427 0
13 -482 514 0
15 47 -113 0
12 -242 243 0
-31 63 129 0
-29 363 -395 0
33 232 -298 0
-18 217 -249 0
-501 -532 533 0
-10 344 -376 0
-12 -481 -547 0
25 -57 123 0
-28 227 293 0
-228 -259 260 0
6 -475 541 0
35 -67 99 0
25 57 -123 0
-219 -250 251 0
-17 -486 -552 0
-11 345 -377 0
492 523 -524 0
32 366 -432 0
-33 -232 -298 0
25 -359 391 0
67 98 -99 0
29 498 -564 0
11 -43 75 0
33 -398 399 0
-479 -510 511 0
10 -479 545 0
28 362 -428 0
-18 518 -519 0
13 -513 514 0
30 229 -295 0
-483 -514 515 0
-45 -76 77 0
-21 220 -252 0
-32 501 -533 0
-35 265 -266 0
26 -526 527 0
36 37 -235 302 775 776 777 778 0
-9 509 -510 0
24 -524 525 0
-9 72 -73 0
9 343 -409 0
-33 65 -97 0
9 -478 544 0
37 -236 302 0
-24 -493 -559 0
-27 527 -528 0
-23 55 -87 0
32 -397 398 0
497 528 -529 0
-16 381 -382 0
36 -235 301 0
-10 209 -241 0
8 -508 509 0
35 -535 536 0
-25 525 -526 0
35 -234 266 0
-10 42 -74 0
-26 -58 -124 0
-19 218 -250 0
19 -488 520 0
-29 92 -93 0
-342 -373 374 0
-13 482 -514 0
33 -502 568 0
-13 45 -77 0
-364 -395 396 0
59 90 -91 0
31 -230 296 0
-21 220 286 0
36 -69 -99 135 136 770 771 772 773 0
-32 95 -96 0
27 -361 393 0
28 -227 293 0
34 -66 98 0
-20 -489 -555 0
-15 515 -516 0
223 254 -255 0
-346 -377 378 0
-19 -353 -419 0
11 -511 512 0
-27 496 -528 0
36 37 -99 135 136 770 771 772 773 0
499 530 -531 0
-28 528 -529 0
-27 59 -91 0
20 52 -118 0
26 -391 392 0
-27 226 -258 0
-23 -357 -423 0
18 -248 249 0
-14 348 -380 0
-27 496 562 0
8 342 -408 0
15 -245 246 0
541 542 543 544 545 546 547 548 549 550 551 552 553 554 555 556 557 558 559 560 561 562 563 564 565 566 567 568 569 570 571 572 573 0
-19 488 554 0
-23 -55 -121 0
-367 -398 399 0
11 480 -546 0
21 53 -119 0
30 -395 396 0
-7 39 -71 0
24 -358 390 0
-62 -93 94 0
36 68 -134 0
14 -244 245 0
-16 48 -80 0
-10 73 -74 0
27 361 -427 0
-33 232 -264 0
-19 -51 -117 0
6 205 -271 0
49 80 -81 0
-13 243 -244 0
232 263 -264 0
6 7 373 0
-16 485 551 0
18 352 -418 0
-8 342 -374 0
-29 259 -260 0
7 -340 373 0
-13 45 111 0
-12 346 412 0
477 508 -509 0
-46 -77 78 0
-36 505 571 0
-19 384 -385 0
-21 -355 -421 0
-25 359 425 0
22 221 -287 0
-18 81 -82 0
-235 -236 -266 302 303 775 776 777 778 0
-493 -524 525 0
-30 62 128 0
37 -69 135 0
214 245 -246 0
23 492 -558 0
349 380 -381 0
-37 -236 -302 0
28 -393 394 0
10 -344 410 0
25 -359 425 0
-18 -352 -418 0
29 -363 395 0
27 -59 91 0
14 -348 380 0
-13 -482 -548 0
9 478 -544 0
24 358 -424 0
22 356 -422 0
6 -39 71 0
23 222 -288 0
19 -488 554 0
-32 -366 -432 0
489 520 -521 0
-13 378 -379 0
23 -523 524 0
-14 46 112 0
-23 388 -389 0
16 -79 80 0
37 69 -135 0
21 -490 522 0
31 365 -431 0
480 511 -512 0
-23 222 288 0
-9 478 544 0
23 55 -121 0
12 -481 513 0
-220 -251 252 0
13 -347 413 0
-37 -371 -437 0
-23 86 -87 0
17 -351 417 0
22 -491 523 0
27 -496 562 0
16 350 -416 0
-63 -94 95 0
16 -215 247 0
-16 -215 -281 0
-26 256 -257 0
27 -226 258 0
-33 -65 -131 0
490 521 -522 0
34 -534 535 0
226 257 -258 0
501 532 -533 0
-18 487 -519 0
32 64 -130 0
-30 62 -94 0
-28 227 -259 0
-7 341 407 0
-25 390 -391 0
14 -514 515 0
364 395 -396 0
20 219 -285 0
-16 350 416 0
-30 260 -261 0
-33 65 131 0
7 -206 238 0
-8 40 106 0
-20 -354 -420 0
-34 368 -400 0
-35 67 -99 0
13 -378 379 0
-22 221 -253 0
35 369 -435 0
30 499 -565 0
-22 356 422 0
-21 84 -85 0
-31 63 -95 0
27 59 -125 0
-26 526 -527 0
-35 -234 -300 0
-20 250 -251 0
18 -352 384 0
-29 228 294 0
-34 233 299 0
-17 486 -518 0
30 -62 128 0
-221 -252 253 0
32 -64 130 0
37 -235 -266 302 303 775 776 777 778 0
9 -41 73 0
35 -98 99 0
-24 223 289 0
-340 -341 373 0
-16 -350 -416 0
29 -498 530 0
36 37 -536 572 573 785 786 787 788 0
-22 522 -523 0
-13 347 413 0
-15 349 415 0
12 -211 243 0
-67 -98 99 0
-480 -511 512 0
481 512 -513 0
-14 -483 -549 0
6 -206 238 0
-16 485 -517 0
-15 484 -516 0
-345 -376 377 0
36 -37 -370 780 781 782 783 0
61 92 -93 0
33 -367 399 0
-207 -238 239 0
31 -63 129 0
-33 502 -534 0
17 -247 248 0
-26 360 -392 0
-11 480 546 0
8 -342 374 0
-22 387 -388 0
-35 369 -401 0
18 50 -116 0
-35 -369 -435 0
-10 42 108 0
18 -81 82 0
-66 -97 98 0
500 531 -532 0
-23 523 -524 0
-205 -206 238 0
33 -65 97 0
-369 -400 401 0
9 41 -107 0
-32 532 -533 0
37 506 -572 0
22 -356 388 0
-8 477 -509 0
-31 365 -397 0
28 -258 259 0
33 -502 534 0
-27 -226 -292 0
-18 248 -249 0
-24 223 -255 0
20 -489 521 0
-11 210 -242 0
-34 97 -98 0
-11 480 -512 0
344 375 -376 0
-6 -7 340 -373 0
17 -216 282 0
-233 -264 265 0
52 83 -84 0
7 206 -272 0
18 487 -553 0
8 207 -273 0
218 249 -250 0
12 44 -110 0
-35 98 -99 0
-20 -52 -118 0
18 -487 553 0
-41 -72 73 0
14 -77 78 0
31 230 -296 0
-26 -495 -561 0
26 -225 291 0
34 -233 265 0
14 -379 380 0
29 -61 93 0
21 -220 286 0
8 -40 72 0
12 -377 378 0
-7 -206 -272 0
21 -521 522 0
-29 61 -93 0
-343 -374 375 0
-8 -207 -273 0
-15 349 -381 0
16 -350 416 0
225 256 -257 0
34 -503 569 0
30 364 -430 0
-15 78 -79 0
19 -353 419 0
-24 254 -255 0
215 246 -247 0
20 -219 251 0
18 -383 384 0
29 -529 530 0
7 -39 71 0
484 515 -516 0
37 -68 -99 135 136 770 771 772 773 0
-24 524 -525 0
31 -261 262 0
-14 -46 -112 0
33 -96 97 0
-29 363 429 0
-18 -487 -553 0
-48 -79 80 0
6 7 238 0
-59 -90 91 0
-8 373 -374 0
13 -482 548 0
7 -475 508 0
-17 -216 -282 0
22 -221 287 0
31 -500 532 0
-26 89 -90 0
-12 211 277 0
-31 261 -262 0
17 -486 518 0
2 -205 308 0
-2 -6 308 0
2 205 -308 0
-2 6 -308 0
-2 -7 309 0
2 -206 309 0
2 206 -309 0
-2 7 -309 0
2 -207 310 0
-2 -8 310 0
-2 8 -310 0
2 207 -310 0
2 -208 311 0
-2 -9 311 0
-2 9 -311 0
2 208 -311 0
2 -209 312 0
-2 -10 312 0
2 209 -312 0
-2 10 -312 0
2 -210 313 0
-2 -11 313 0
-2 11 -313 0
2 210 -313 0
-2 -12 314 0
2 -211 314 0
2 211 -314 0
-2 12 -314 0
-2 -13 315 0
2 -212 315 0
-2 13 -315 0
2 212 -315 0
-2 -14 316 0
2 -213 316 0
2 213 -316 0
-2 14 -316 0
2 -214 317 0
-2 -15 317 0
-2 15 -317 0
2 214 -317 0
2 -215 318 0
-2 -16 318 0
2 215 -318 0
-2 16 -318 0
2 -216 319 0
-2 -17 319 0
2 216 -319 0
-2 17 -319 0
2 -217 320 0
-2 -18 320 0
-2 18 -320 0
2 217 -320 0
2 -218 321 0
-2 -19 321 0
-2 19 -321 0
2 218 -321 0
2 -219 322 0
-2 -20 322 0
2 219 -322 0
-2 20 -322 0
2 -220 323 0
-2 -21 323 0
2 220 -323 0
-2 21 -323 0
2 -221 324 0
-2 -22 324 0
-2 22 -324 0
2 221 -324 0
-2 -23 325 0
2 -222 325 0
2 222 -325 0
-2 23 -325 0
2 -223 326 0
-2 -24 326 0
-2 24 -326 0
2 223 -326 0
-2 -25 327 0
2 -224 327 0
-2 25 -327 0
2 224 -327 0
2 -225 328 0
-2 -26 328 0
2 225 -328 0
-2 26 -328 0
-2 -27 329 0
2 -226 329 0
-2 27 -329 0
2 226 -329 0
2 -227 330 0
-2 -28 330 0
2 227 -330 0
-2 28 -330 0
-2 -29 331 0
2 -228 331 0
2 228 -331 0
-2 29 -331 0
2 -229 332 0
-2 -30 332 0
-2 30 -332 0
2 229 -332 0
-2 -31 333 0
2 -230 333 0
-2 31 -333 0
2 230 -333 0
-2 -32 334 0
2 -231 334 0
2 231 -334 0
-2 32 -334 0
2 -232 335 0
-2 -33 335 0
-2 33 -335 0
2 232 -335 0
-2 -34 336 0
2 -233 336 0
-2 34 -336 0
2 233 -336 0
2 -234 337 0
-2 -35 337 0
2 234 -337 0
-2 35 -337 0
2 -235 338 0
-2 -36 338 0
2 235 -338 0
-2 36 -338 0
-2 -37 339 0
2 -236 339 0
2 236 -339 0
-2 37 -339 0
3 -340 443 0
-3 -6 443 0
-3 6 -443 0
3 340 -443 0
-3 -7 444 0
3 -341 444 0
3 341 -444 0
-3 7 -444 0
3 -342 445 0
-3 -8 445 0
-3 8 -445 0
3 342 -445 0
-3 -9 446 0
3 -343 446 0
3 343 -446 0
-3 9 -446 0
-3 -10 447 0
3 -344 447 0
-3 10 -447 0
3 344 -447 0
-3 -11 448 0
3 -345 448 0
-3 11 -448 0
3 345 -448 0
3 -346 449 0
-3 -12 449 0
-3 12 -449 0
3 346 -449 0
-3 -13 450 0
3 -347 450 0
3 347 -450 0
-3 13 -450 0
-3 -14 451 0
3 -348 451 0
3 348 -451 0
-3 14 -451 0
-3 -15 452 0
3 -349 452 0
-3 15 -452 0
3 349 -452 0
3 -350 453 0
-3 -16 453 0
3 350 -453 0
-3 16 -453 0
-3 -17 454 0
3 -351 454 0
-3 17 -454 0
3 351 -454 0
-3 -18 455 0
3 -352 455 0
-3 18 -455 0
3 352 -455 0
-3 -19 456 0
3 -353 456 0
-3 19 -456 0
3 353 -456 0
3 -354 457 0
-3 -20 457 0
-3 20 -457 0
3 354 -457 0
3 -355 458 0
-3 -21 458 0
3 355 -458 0
-3 21 -458 0
3 -356 459 0
-3 -22 459 0
-3 22 -459 0
3 356 -459 0
-3 -23 460 0
3 -357 460 0
-3 23 -460 0
3 357 -460 0
3 -358 461 0
-3 -24 461 0
3 358 -461 0
-3 24 -461 0
-3 -25 462 0
3 -359 462 0
-3 25 -462 0
3 359 -462 0
-3 -26 463 0
3 -360 463 0
-3 26 -463 0
3 360 -463 0
3 -361 464 0
-3 -27 464 0
-3 27 -464 0
3 361 -464 0
-3 -28 465 0
3 -362 465 0
3 362 -465 0
-3 28 -465 0
3 -363 466 0
-3 -29 466 0
-3 29 -466 0
3 363 -466 0
-3 -30 467 0
3 -364 467 0
-3 30 -467 0
3 364 -467 0
3 -365 468 0
-3 -31 468 0
-3 31 -468 0
3 365 -468 0
3 -366 469 0
-3 -32 469 0
3 366 -469 0
-3 32 -469 0
3 -367 470 0
-3 -33 470 0
3 367 -470 0
-3 33 -470 0
-3 -34 471 0
3 -368 471 0
-3 34 -471 0
3 368 -471 0
3 -369 472 0
-3 -35 472 0
-3 35 -472 0
3 369 -472 0
-3 -36 473 0
3 -370 473 0
3 370 -473 0
-3 36 -473 0
-3 -37 474 0
3 -371 474 0
-3 37 -474 0
3 371 -474 0
4 -475 578 0
-4 -6 578 0
4 475 -578 0
-4 6 -578 0
4 -476 579 0
-4 -7 579 0
-4 7 -579 0
4 476 -579 0
-4 -8 580 0
4 -477 580 0
4 477 -580 0
-4 8 -580 0
4 -478 581 0
-4 -9 581 0
4 478 -581 0
-4 9 -581 0
4 -479 582 0
-4 -10 582 0
4 479 -582 0
-4 10 -582 0
-4 -11 583 0
4 -480 583 0
-4 11 -583 0
4 480 -583 0
4 -481 584 0
-4 -12 584 0
-4 12 -584 0
4 481 -584 0
4 -482 585 0
-4 -13 585 0
-4 13 -585 0
4 482 -585 0
-4 -14 586 0
4 -483 586 0
4 483 -586 0
-4 14 -586 0
4 -484 587 0
-4 -15 587 0
4 484 -587 0
-4 15 -587 0
4 -485 588 0
-4 -16 588 0
4 485 -588 0
-4 16 -588 0
4 -486 589 0
-4 -17 589 0
-4 17 -589 0
4 486 -589 0
4 -487 590 0
-4 -18 590 0
4 487 -590 0
-4 18 -590 0
-4 -19 591 0
4 -488 591 0
-4 19 -591 0
4 488 -591 0
-4 -20 592 0
4 -489 592 0
4 489 -592 0
-4 20 -592 0
4 -490 593 0
-4 -21 593 0
-4 21 -593 0
4 490 -593 0
4 -491 594 0
-4 -22 594 0
-4 22 -594 0
4 491 -594 0
-4 -23 595 0
4 -492 595 0
-4 23 -595 0
4 492 -595 0
4 -493 596 0
-4 -24 596 0
-4 24 -596 0
4 493 -596 0
4 -494 597 0
-4 -25 597 0
-4 25 -597 0
4 494 -597 0
-4 -26 598 0
4 -495 598 0
-4 26 -598 0
4 495 -598 0
-4 -27 599 0
4 -496 599 0
4 496 -599 0
-4 27 -599 0
4 -497 600 0
-4 -28 600 0
-4 28 -600 0
4 497 -600 0
-4 -29 601 0
4 -498 601 0
4 498 -601 0
-4 29 -601 0
4 -499 602 0
-4 -30 602 0
-4 30 -602 0
4 499 -602 0
4 -500 603 0
-4 -31 603 0
-4 31 -603 0
4 500 -603 0
-4 -32 604 0
4 -501 604 0
-4 32 -604 0
4 501 -604 0
4 -502 605 0
-4 -33 605 0
4 502 -605 0
-4 33 -605 0
-4 -34 606 0
4 -503 606 0
4 503 -606 0
-4 34 -606 0
-4 -35 607 0
4 -504 607 0
-4 35 -607 0
4 504 -607 0
4 -505 608 0
-4 -36 608 0
-4 36 -608 0
4 505 -608 0
4 -506 609 0
-4 -37 609 0
-4 37 -609 0
4 506 -609 0
-738 742 770 0
738 742 -770 0
738 -742 770 0
-738 -742 -770 0
739 743 -771 0
-739 743 771 0
-739 -743 -771 0
739 -743 771 0
740 744 -772 0
-740 744 772 0
740 -744 772 0
-740 -744 -772 0
-741 745 773 0
741 745 -773 0
741 -745 773 0
-741 -745 -773 0
746 750 -775 0
-746 750 775 0
-746 -750 -775 0
746 -750 775 0
-747 751 776 0
747 751 -776 0
747 -751 776 0
-747 -751 -776 0
748 752 -777 0
-748 752 777 0
748 -752 777 0
-748 -752 -777 0
749 753 -778 0
-749 753 778 0
749 -753 778 0
-749 -753 -778 0
-754 758 780 0
754 758 -780 0
-754 -758 -780 0
754 -758 780 0
-755 759 781 0
755 759 -781 0
755 -759 781 0
-755 -759 -781 0
-756 760 782 0
756 760 -782 0
-756 -760 -782 0
756 -760 782 0
-757 761 783 0
757 761 -783 0
757 -761 783 0
-757 -761 -783 0
762 766 -785 0
-762 766 785 0
762 -766 785 0
-762 -766 -785 0
-763 767 786 0
763 767 -786 0
763 -767 786 0
-763 -767 -786 0
-764 768 787 0
764 768 -787 0
764 -768 787 0
-764 -768 -787 0
-765 769 788 0
765 769 -788 0
765 -769 788 0
-765 -769 -788 0
790 -792 0
-790 792 0
791 -793 0
-791 793 0
2 304 0
-2 -304 0
3 439 0
-3 -439 0
4 574 0
-4 -574 0
-1 -6 173 0
1 -38 173 0
1 38 -173 0
-1 6 -173 0
1 -39 174 0
-1 -7 174 0
1 39 -174 0
-1 7 -174 0
-1 -8 175 0
1 -40 175 0
1 40 -175 0
-1 8 -175 0
-1 -9 176 0
1 -41 176 0
1 41 -176 0
-1 9 -176 0
1 -42 177 0
-1 -10 177 0
1 42 -177 0
-1 10 -177 0
1 -43 178 0
-1 -11 178 0
1 43 -178 0
-1 11 -178 0
-1 -12 179 0
1 -44 179 0
-1 12 -179 0
1 44 -179 0
-1 -13 180 0
1 -45 180 0
1 45 -180 0
-1 13 -180 0
1 -46 181 0
-1 -14 181 0
1 46 -181 0
-1 14 -181 0
-1 -15 182 0
1 -47 182 0
1 47 -182 0
-1 15 -182 0
1 -48 183 0
-1 -16 183 0
-1 16 -183 0
1 48 -183 0
-1 -17 184 0
1 -49 184 0
1 49 -184 0
-1 17 -184 0
1 -50 185 0
-1 -18 185 0
-1 18 -185 0
1 50 -185 0
-1 -19 186 0
1 -51 186 0
-1 19 -186 0
1 51 -186 0
-1 -20 187 0
1 -52 187 0
1 52 -187 0
-1 20 -187 0
1 -53 188 0
-1 -21 188 0
-1 21 -188 0
1 53 -188 0
1 -54 189 0
-1 -22 189 0
1 54 -189 0
-1 22 -189 0
-1 -23 190 0
1 -55 190 0
-1 23 -190 0
1 55 -190 0
-1 -24 191 0
1 -56 191 0
1 56 -191 0
-1 24 -191 0
1 -57 192 0
-1 -25 192 0
-1 25 -192 0
1 57 -192 0
-1 -26 193 0
1 -58 193 0
1 58 -193 0
-1 26 -193 0
1 -59 194 0
-1 -27 194 0
1 59 -194 0
-1 27 -194 0
-1 -28 195 0
1 -60 195 0
-1 28 -195 0
1 60 -195 0
1 -61 196 0
-1 -29 196 0
-1 29 -196 0
1 61 -196 0
1 -62 197 0
-1 -30 197 0
1 62 -197 0
-1 30 -197 0
-1 -31 198 0
1 -63 198 0
-1 31 -198 0
1 63 -198 0
1 -64 199 0
-1 -32 199 0
1 64 -199 0
-1 32 -199 0
1 -65 200 0
-1 -33 200 0
1 65 -200 0
-1 33 -200 0
1 -66 201 0
-1 -34 201 0
1 66 -201 0
-1 34 -201 0
1 -67 202 0
-1 -35 202 0
1 67 -202 0
-1 35 -202 0
1 -68 203 0
-1 -36 203 0
1 68 -203 0
-1 36 -203 0
-1 -37 204 0
1 -69 204 0
-1 37 -204 0
1 69 -204 0
1 137 0
-1 -137 0
138 -774 0
-138 137 0
-138 774 0
305 -779 0
-305 304 0
-305 779 0
575 -789 0
-575 574 0
-575 789 0
440 -784 0
-440 439 0
-440 784 0
304 -303 0
304 -270 0
304 -779 0
270 303 -304 0
574 -573 0
574 -540 0
574 -789 0
540 573 -574 0
137 -136 0
137 -103 0
137 -774 0
103 136 -137 0
439 -438 0
439 -405 0
439 -784 0
405 438 -439 0
775 776 777 778 779 0
-779 -778 0
-779 -775 0
-779 -776 0
-779 -777 0
270 303 -779 0
770 771 772 773 774 0
-774 -773 0
-774 -770 0
-774 -771 0
-774 -772 0
103 136 -774 0
785 786 787 788 789 0
-789 -788 0
-789 -785 0
-789 -786 0
-789 -787 0
540 573 -789 0
780 781 782 783 784 0
-784 -783 0
-784 -780 0
-784 -781 0
-784 -782 0
405 438 -784 0
403 404 405 0
-403 -404 405 0
405 438 780 781 782 783 0
-403 404 -405 0
403 -404 -405 0
268 269 270 0
-268 -269 270 0
270 303 775 776 777 778 0
-268 269 -270 0
268 -269 -270 0
101 102 103 0
-101 -102 103 0
103 136 770 771 772 773 0
101 -102 -103 0
-101 102 -103 0
-538 -539 540 0
538 539 540 0
540 573 785 786 787 788 0
538 -539 -540 0
-538 539 -540 0
37 -371 404 0
-37 371 404 0
-403 404 438 780 781 782 783 0
-37 -371 -404 0
37 371 -404 0
403 -404 438 780 781 782 783 0
-7 372 -373 0
341 372 -373 0
372 -340 0
372 6 0
7 -372 373 0
-341 -372 373 0
-6 340 -372 0
206 237 -238 0
-7 237 -238 0
237 -205 0
237 6 0
-206 -237 238 0
7 -237 238 0
-6 205 -237 0
-7 70 -71 0
39 70 -71 0
70 6 0
70 -38 0
7 -70 71 0
-39 -70 71 0
-6 38 -70 0
-7 507 -508 0
476 507 -508 0
507 -475 0
507 6 0
7 -507 508 0
-476 -507 508 0
-6 475 -507 0
37 -402 403 0
-371 -402 403 0
37 -371 403 0
-37 402 -403 0
371 402 -403 0
-37 371 -403 0
371 -403 438 780 781 782 783 0
-37 -403 438 780 781 782 783 0
36 -401 402 0
-370 -401 402 0
36 -370 402 0
370 401 -402 0
-36 401 -402 0
-36 370 -402 0
-37 -402 438 780 781 782 783 0
371 -402 438 780 781 782 783 0
102 -135 0
-37 69 102 0
37 -69 102 0
-101 102 136 770 771 772 773 0
-102 135 0
-37 -69 -102 0
37 69 -102 0
101 -102 136 770 771 772 773 0
269 -302 0
-37 236 269 0
37 -236 269 0
-268 269 303 775 776 777 778 0
-269 302 0
-37 -236 -269 0
37 236 -269 0
268 -269 303 775 776 777 778 0
37 -267 268 0
-236 -267 268 0
37 -236 268 0
268 -302 775 776 777 778 0
236 267 -268 0
-37 267 -268 0
-37 236 -268 0
-268 302 303 775 776 777 778 0
539 -572 0
37 -506 539 0
-37 506 539 0
-538 539 573 785 786 787 788 0
-539 572 0
37 506 -539 0
-37 -506 -539 0
538 -539 573 785 786 787 788 0
-69 -100 101 0
37 -100 101 0
37 -69 101 0
101 -135 770 771 772 773 0
69 100 -101 0
-37 100 -101 0
-37 69 -101 0
-101 135 136 770 771 772 773 0
37 -537 538 0
-506 -537 538 0
37 -506 538 0
538 -572 785 786 787 788 0
506 537 -538 0
-37 537 -538 0
-37 506 -538 0
-538 572 573 785 786 787 788 0
36 -536 537 0
-505 -536 537 0
36 -505 537 0
-36 536 -537 0
505 536 -537 0
-36 505 -537 0
-506 -537 572 573 785 786 787 788 0
37 -537 572 573 785 786 787 788 0
-235 -266 267 0
36 -266 267 0
36 -235 267 0
-36 266 -267 0
235 266 -267 0
-36 235 -267 0
-236 -267 302 303 775 776 777 778 0
37 -267 302 303 775 776 777 778 0
36 -99 100 0
-68 -99 100 0
36 -68 100 0
-36 99 -100 0
68 99 -100 0
-36 68 -100 0
-69 -100 135 136 770 771 772 773 0
37 -100 135 136 770 771 772 773 0
